p tw 110 354
0 1
0 2
0 12
0 37
0 59
0 97
1 2
1 11
1 36
1 60
1 102
2 14
2 15
2 38
2 57
2 90
2 91
2 92
3 4
3 54
3 55
3 56
4 41
4 42
4 43
5 6
5 42
5 54
5 89
6 17
6 43
6 55
6 94
6 104
6 109
7 8
7 9
7 10
7 51
7 69
7 70
8 9
8 10
8 53
8 58
8 93
9 10
9 27
9 28
9 29
10 52
10 65
10 96
10 103
11 12
11 13
11 14
11 36
11 60
11 102
12 13
12 14
12 37
12 59
12 97
13 14
13 23
13 24
14 15
14 38
14 57
14 90
14 91
14 92
15 16
15 17
15 38
15 57
15 90
15 91
15 92
16 17
16 95
17 43
17 55
17 94
17 104
17 109
18 19
18 34
18 45
18 66
18 67
18 68
19 32
20 21
20 22
20 64
20 67
20 79
20 80
21 22
21 63
21 66
21 77
21 78
22 44
22 45
22 46
22 47
22 48
22 49
22 50
23 24
23 91
23 94
23 95
24 57
25 26
25 58
26 90
26 93
26 97
26 102
26 103
27 28
27 29
27 65
28 29
28 96
29 51
29 52
29 53
30 31
30 46
30 107
31 48
31 75
31 76
32 33
32 34
32 35
33 34
33 35
33 62
33 72
33 88
34 35
34 45
34 66
34 67
34 68
35 61
35 71
35 100
36 37
36 38
36 60
36 102
37 38
37 59
37 97
38 57
38 90
38 91
38 92
39 40
39 69
39 81
39 82
40 70
40 86
40 87
41 42
41 43
41 56
41 61
41 62
42 43
42 54
42 89
43 55
43 94
43 104
43 109
44 45
44 46
44 47
44 48
44 49
44 50
44 106
45 46
45 47
45 48
45 49
45 50
45 66
45 67
45 68
46 47
46 48
46 49
46 50
46 107
47 48
47 49
47 50
47 98
48 49
48 50
48 75
48 76
49 50
49 63
49 64
50 78
50 79
50 99
51 52
51 53
51 69
51 70
52 53
52 65
52 96
52 103
53 58
53 93
54 55
54 56
54 89
55 56
55 94
55 104
55 109
56 61
56 62
57 90
57 91
57 92
58 93
59 60
59 97
60 102
61 62
61 71
61 100
62 72
62 88
63 64
63 66
63 77
63 78
64 67
64 79
64 80
65 96
65 103
66 67
66 68
66 77
66 78
67 68
67 79
67 80
68 83
68 88
68 100
68 101
69 70
69 81
69 82
70 86
70 87
71 72
71 73
71 74
71 100
72 73
72 74
72 88
73 74
73 101
74 83
75 76
75 81
75 85
75 87
75 106
75 107
75 108
76 98
76 99
77 78
77 80
78 79
78 99
79 80
79 99
81 82
81 85
81 87
81 106
81 107
81 108
82 84
82 86
82 105
83 88
83 100
83 101
84 85
84 86
84 105
85 87
85 106
85 107
85 108
86 87
86 105
87 106
87 107
87 108
88 100
88 101
89 109
90 91
90 92
90 93
90 97
90 102
90 103
91 92
91 94
91 95
92 104
93 97
93 102
93 103
94 95
94 104
94 109
96 103
97 102
97 103
98 99
100 101
102 103
104 109
105 108
106 107
106 108
107 108
